# Precision-Parameter
SYSTEM = GaPSb
PREC = accurate
ENCUT = 550
EDIFF = 1E-08
EDIFFG = -1E-02
LREAL = Auto
ISYM = -1        # Symmetriek
#ISPIN = 1      # 1 restr. 2 unrestr.
#LMAXMIX = 4

#These two shouldn't be used for meta-GGA and hybrid functional
#Because they don't read CHGCAR correctly
#ISTART = 1
#ICHARG = 1

# vdW correction
#IVDW = 12
# meta-GGA functional
METAGGA = MBJ
LASPH = T
LSORBIT = .TRUE.
#SAXIS = 0+ 0 1
GGA_COMPAT = .FALSE. 
#GGA = PE

# SCF Optimization
ALGO = FAST #N
NELM = 600
NELMIN = 5
NELMDL = -10
ISMEAR = 0
SIGMA = 0.01 # Shouldn't be =0.

# Parallelization
LPLANE = .TRUE.
NCORE = 24
NSIM = 8

# Geometry Optimization
IBRION = -1
NSW = 0
ISIF = 0
ADDGRID = T

# Mixing-Parameter
AMIX   = 0.35
BMIX   = 0.1
MAXMIX = 30

# Output-Parameter
NWRITE = 0
LWAVE = T
LCHARG =  F
LVTOT = F
#LORBIT = 11

